VEHICLE INFORMATION
Type	Number	Capacity	Endurance	 Speed	 Unit cost
Truck	    2	      500	     8.00	   35	   1.0
Drone	    2	       30	     1.00	   70	   0.2

CUSTOMER INFORMATION
Id 	X	Y	Demand_D	Demand_P
0  	15.00	15.00	    0.00	    0.00
1  	2.48	13.64	   12.00	   15.00
2  	1.64	19.22	   52.00	   35.00
3  	3.42	7.92	    4.00	    0.00
4  	15.46	21.57	   39.00	   38.00
5  	27.29	25.47	   14.00	    4.00
6  	8.49	20.89	   11.00	    5.00
7  	1.68	17.59	   14.00	   13.00
8  	20.73	2.10	    5.00	   18.00
9  	15.52	1.35	    0.00	    0.00
10 	12.58	27.07	   12.00	    8.00
11 	15.00	15.00	    0.00	    0.00

Distance For Drone
    0	    1	    12.6
    0	    2	    14.0
    0	    3	    13.6
    0	    4	     6.6
    0	    5	    16.1
    0	    6	     8.8
    0	    7	    13.6
    0	    8	    14.1
    0	    9	    13.7
    0	   10	    12.3
    1	    2	     5.6
    1	    3	     5.8
    1	    4	    15.2
    1	    5	    27.5
    1	    6	     9.4
    1	    7	     4.0
    1	    8	    21.6
    1	    9	    17.9
    1	   10	    16.8
    1	   11	    12.6
    2	    1	     5.6
    2	    3	    11.4
    2	    4	    14.0
    2	    5	    26.4
    2	    6	     7.1
    2	    7	     1.6
    2	    8	    25.6
    2	    9	    22.6
    2	   10	    13.5
    2	   11	    14.0
    3	    1	     5.8
    3	    2	    11.4
    3	    4	    18.2
    3	    5	    29.6
    3	    6	    13.9
    3	    7	     9.8
    3	    8	    18.3
    3	    9	    13.8
    3	   10	    21.2
    3	   11	    13.6
    4	    1	    15.2
    4	    2	    14.0
    4	    3	    18.2
    4	    5	    12.5
    4	    6	     7.0
    4	    7	    14.3
    4	    8	    20.2
    4	    9	    20.2
    4	   10	     6.2
    4	   11	     6.6
    5	    1	    27.5
    5	    2	    26.4
    5	    3	    29.6
    5	    4	    12.5
    5	    6	    19.3
    5	    7	    26.8
    5	    8	    24.3
    5	    9	    26.8
    5	   10	    14.8
    5	   11	    16.1
    6	    1	     9.4
    6	    2	     7.1
    6	    3	    13.9
    6	    4	     7.0
    6	    5	    19.3
    6	    7	     7.6
    6	    8	    22.4
    6	    9	    20.8
    6	   10	     7.4
    6	   11	     8.8
    7	    1	     4.0
    7	    2	     1.6
    7	    3	     9.8
    7	    4	    14.3
    7	    5	    26.8
    7	    6	     7.6
    7	    8	    24.6
    7	    9	    21.3
    7	   10	    14.4
    7	   11	    13.6
    8	    1	    21.6
    8	    2	    25.6
    8	    3	    18.3
    8	    4	    20.2
    8	    5	    24.3
    8	    6	    22.4
    8	    7	    24.6
    8	    9	     5.3
    8	   10	    26.3
    8	   11	    14.1
    9	    1	    17.9
    9	    2	    22.6
    9	    3	    13.8
    9	    4	    20.2
    9	    5	    26.8
    9	    6	    20.8
    9	    7	    21.3
    9	    8	     5.3
    9	   10	    25.9
    9	   11	    13.7
   10	    1	    16.8
   10	    2	    13.5
   10	    3	    21.2
   10	    4	     6.2
   10	    5	    14.8
   10	    6	     7.4
   10	    7	    14.4
   10	    8	    26.3
   10	    9	    25.9
   10	   11	    12.3
    0	   11	       0

Distance For Truck
    0	    1	    12.6
    0	    2	    18.2
    0	    3	    18.4
    0	    4	     6.6
    0	    5	    19.1
    0	    6	    13.6
    0	    7	    16.6
    0	    8	    19.0
    0	    9	    13.7
    0	   10	    12.8
    0	   11	    13.2
    1	    2	     5.6
    1	    3	     5.8
    1	    4	    19.2
    1	    5	    31.7
    1	    6	    12.7
    1	    7	     4.0
    1	    8	    31.6
    1	    9	    26.3
    1	   10	    25.4
    1	   11	    12.6
    2	    1	     5.6
    2	    3	    11.4
    2	    4	    14.1
    2	    5	    26.6
    2	    6	     7.1
    2	    7	     1.6
    2	    8	    37.2
    2	    9	    31.9
    2	   10	    20.3
    2	   11	    18.2
    3	    1	     5.8
    3	    2	    11.4
    3	    4	    25.0
    3	    5	    37.5
    3	    6	    18.5
    3	    7	     9.8
    3	    8	    37.4
    3	    9	    32.1
    3	   10	    31.2
    3	   11	    18.4
    4	    1	    19.2
    4	    2	    14.1
    4	    3	    25.0
    4	    5	    12.5
    4	    6	     7.0
    4	    7	    15.7
    4	    8	    25.6
    4	    9	    20.3
    4	   10	     6.2
    4	   11	     6.6
    5	    1	    31.7
    5	    2	    26.6
    5	    3	    37.5
    5	    4	    12.5
    5	    6	    19.5
    5	    7	    28.2
    5	    8	    38.1
    5	    9	    32.8
    5	   10	    18.7
    5	   11	    19.1
    6	    1	    12.7
    6	    2	     7.1
    6	    3	    18.5
    6	    4	     7.0
    6	    5	    19.5
    6	    7	     8.7
    6	    8	    32.6
    6	    9	    27.3
    6	   10	    13.2
    6	   11	    13.6
    7	    1	     4.0
    7	    2	     1.6
    7	    3	     9.8
    7	    4	    15.7
    7	    5	    28.2
    7	    6	     8.7
    7	    8	    35.6
    7	    9	    30.3
    7	   10	    21.9
    7	   11	    16.6
    8	    1	    31.6
    8	    2	    37.2
    8	    3	    37.4
    8	    4	    25.6
    8	    5	    38.1
    8	    6	    32.6
    8	    7	    35.6
    8	    9	     5.3
    8	   10	    31.8
    8	   11	    19.0
    9	    1	    26.3
    9	    2	    31.9
    9	    3	    32.1
    9	    4	    20.3
    9	    5	    32.8
    9	    6	    27.3
    9	    7	    30.3
    9	    8	     5.3
    9	   10	    26.5
    9	   11	    13.7
   10	    1	    25.4
   10	    2	    20.3
   10	    3	    31.2
   10	    4	     6.2
   10	    5	    18.7
   10	    6	    13.2
   10	    7	    21.9
   10	    8	    31.8
   10	    9	    26.5
   10	   11	    12.8
